32	0

0	2	2	3
10	1	4
9	2	4	5
3	2	6	8
4	2	6	8
1	1	7
10	2	9	10
5	2	9	10
3	1	11
10	2	13	14
2	1	12
1	2	13	14
8	1	15
6	2	15	17
5	1	16
1	1	18
8	1	18
9	2	19	20
8	2	23	24
4	1	21
2	1	22
2	2	23	24
4	2	25	26
10	1	25
3	1	27
10	1	27
8	2	28	30
6	2	29	31
10	1	32
7	1	31
9	1	32
0	0
